set STUDENT :=  Studente1 Studente2 Studente3 Studente4 Studente5 
                Studente6 Studente7 Studente8 Studente9 Studente10 
                Studente11 Studente12 Studente13 Studente14 Studente15 
                Studente16 Studente17 Studente18 Studente19 Studente20;

set SHIFT :=    1_1     1_2     1_3
                2_1     2_2     2_3 
                3_1     3_2     3_3
                4_1     4_2     4_3
                5_1     5_2     5_3
                6_1     6_2     6_3
                7_1     7_2     7_3
                8_1     8_2     8_3
                9_1     9_2     9_3
                10_1    10_2    10_3
                11_1    11_2    11_3
                12_1    12_2    12_3
                13_1    13_2    13_3
                14_1    14_2    14_3
                15_1    15_2    15_3
                16_1    16_2    16_3
                17_1    17_2    17_3
                18_1    18_2    18_3
                19_1    19_2    19_3
                20_1    20_2    20_3
                21_1    21_2    21_3
                22_1    22_2    22_3
                23_1    23_2    23_3
                24_1    24_2    24_3
                25_1    25_2    25_3
                26_1    26_2    26_3
                27_1    27_2    27_3
                28_1    28_2    28_3
                29_1    29_2    29_3
                30_1    30_2    30_3
                31_1    31_2    31_3 ;

set EXISTANCE := 1_1 1  1_2 1   1_3 1
                 2_1 1  2_2 1   2_3 1
                 3_1 1  3_2 1   3_3 1
                 4_1 1  4_2 1   4_3 1
                 5_1 1  5_2 1   5_3 1
                 6_1 1  6_2 1   6_3 1
                 7_1 1  7_2 1   7_3 1
                 8_1 1  8_2 1   8_3 1
                 9_1 1  9_2 1   9_3 1
                 10_1 1 10_2 1  10_3 1
                 11_1 1 11_2 1  11_3 1
                 12_1 1 12_2 1  12_3 1
                 13_1 1 13_2 1  13_3 1
                 14_1 1 14_2 1  14_3 1
                 15_1 1 15_2 1  15_3 1
                 16_1 1 16_2 1  16_3 1
                 17_1 1 17_2 1  17_3 1
                 18_1 1 18_2 1  18_3 1
                 19_1 1 19_2 1  19_3 1
                 20_1 1 20_2 1  20_3 1
                 21_1 1 21_2 1  21_3 1
                 22_1 1 22_2 1  22_3 1
                 23_1 1 23_2 1  23_3 1
                 24_1 1 24_2 1  24_3 1
                 25_1 1 25_2 1  25_3 1
                 26_1 1 26_2 1  26_3 1
                 27_1 1 27_2 1  27_3 1
                 28_1 1 28_2 1  28_3 1
                 29_1 1 29_2 1  29_3 1
                 30_1 1 30_2 1  30_3 1
                 31_1 1 31_2 1  31_3 1 ;

set MATCHES := 
                    (Studente1, *) 1_1 1_2 1_3 2_1 2_2 2_3 3_1 3_2  3_3 4_1 4_2  4_3 5_1 5_2  5_3 6_1 6_2  6_3 7_1 7_2  7_3 8_1 8_2  8_3 9_1 9_2  9_3 10_110_2 10_3 11_111_2 11_3 12_112_2 12_3 13_113_2 13_3 14_114_2 14_3 15_115_2 15_3 16_116_2 16_3 17_117_2 17_3 18_118_2 18_3 19_119_2 19_3 20_120_2 20_3 21_121_2 21_3 22_122_2 22_3 23_123_2 23_3 24_124_2 24_3 25_125_2 25_3 26_126_2 26_3 27_127_2 27_3 28_128_2 28_3 29_129_2 29_3 30_130_2 30_3 31_131_2 31_3
                    (Studente2, *) 1_1 1_2 1_3 2_1 2_2 2_3 3_1 3_2  3_3 4_1 4_2  4_3 5_1 5_2  5_3 6_1 6_2  6_3 7_1 7_2  7_3 8_1 8_2  8_3 9_1 9_2  9_3 10_110_2 10_3 11_111_2 11_3 12_112_2 12_3 13_113_2 13_3 14_114_2 14_3 15_115_2 15_3 16_116_2 16_3 17_117_2 17_3 18_118_2 18_3 19_119_2 19_3 20_120_2 20_3 21_121_2 21_3 22_122_2 22_3 23_123_2 23_3 24_124_2 24_3 25_125_2 25_3 26_126_2 26_3 27_127_2 27_3 28_128_2 28_3 29_129_2 29_3 30_130_2 30_3 31_131_2 31_3
                    (Studente3, *) 1_1 1_2 1_3 2_1 2_2 2_3 3_1 3_2  3_3 4_1 4_2  4_3 5_1 5_2  5_3 6_1 6_2  6_3 7_1 7_2  7_3 8_1 8_2  8_3 9_1 9_2  9_3 10_110_2 10_3 11_111_2 11_3 12_112_2 12_3 13_113_2 13_3 14_114_2 14_3 15_115_2 15_3 16_116_2 16_3 17_117_2 17_3 18_118_2 18_3 19_119_2 19_3 20_120_2 20_3 21_121_2 21_3 22_122_2 22_3 23_123_2 23_3 24_124_2 24_3 25_125_2 25_3 26_126_2 26_3 27_127_2 27_3 28_128_2 28_3 29_129_2 29_3 30_130_2 30_3 31_131_2 31_3
                    (Studente4, *) 1_1 1_2 1_3 2_1 2_2 2_3 3_1 3_2  3_3 4_1 4_2  4_3 5_1 5_2  5_3 6_1 6_2  6_3 7_1 7_2  7_3 8_1 8_2  8_3 9_1 9_2  9_3 10_110_2 10_3 11_111_2 11_3 12_112_2 12_3 13_113_2 13_3 14_114_2 14_3 15_115_2 15_3 16_116_2 16_3 17_117_2 17_3 18_118_2 18_3 19_119_2 19_3 20_120_2 20_3 21_121_2 21_3 22_122_2 22_3 23_123_2 23_3 24_124_2 24_3 25_125_2 25_3 26_126_2 26_3 27_127_2 27_3 28_128_2 28_3 29_129_2 29_3 30_130_2 30_3 31_131_2 31_3
                    (Studente5, *) 1_1 1_2 1_3 2_1 2_2 2_3 3_1 3_2  3_3 4_1 4_2  4_3 5_1 5_2  5_3 6_1 6_2  6_3 7_1 7_2  7_3 8_1 8_2  8_3 9_1 9_2  9_3 10_110_2 10_3 11_111_2 11_3 12_112_2 12_3 13_113_2 13_3 14_114_2 14_3 15_115_2 15_3 16_116_2 16_3 17_117_2 17_3 18_118_2 18_3 19_119_2 19_3 20_120_2 20_3 21_121_2 21_3 22_122_2 22_3 23_123_2 23_3 24_124_2 24_3 25_125_2 25_3 26_126_2 26_3 27_127_2 27_3 28_128_2 28_3 29_129_2 29_3 30_130_2 30_3 31_131_2 31_3
                    (Studente6, *) 1_1 1_2 1_3 2_1 2_2 2_3 3_1 3_2  3_3 4_1 4_2  4_3 5_1 5_2  5_3 6_1 6_2  6_3 7_1 7_2  7_3 8_1 8_2  8_3 9_1 9_2  9_3 10_110_2 10_3 11_111_2 11_3 12_112_2 12_3 13_113_2 13_3 14_114_2 14_3 15_115_2 15_3 16_116_2 16_3 17_117_2 17_3 18_118_2 18_3 19_119_2 19_3 20_120_2 20_3 21_121_2 21_3 22_122_2 22_3 23_123_2 23_3 24_124_2 24_3 25_125_2 25_3 26_126_2 26_3 27_127_2 27_3 28_128_2 28_3 29_129_2 29_3 30_130_2 30_3 31_131_2 31_3
                    (Studente7, *) 1_1 1_2 1_3 2_1 2_2 2_3 3_1 3_2  3_3 4_1 4_2  4_3 5_1 5_2  5_3 6_1 6_2  6_3 7_1 7_2  7_3 8_1 8_2  8_3 9_1 9_2  9_3 10_110_2 10_3 11_111_2 11_3 12_112_2 12_3 13_113_2 13_3 14_114_2 14_3 15_115_2 15_3 16_116_2 16_3 17_117_2 17_3 18_118_2 18_3 19_119_2 19_3 20_120_2 20_3 21_121_2 21_3 22_122_2 22_3 23_123_2 23_3 24_124_2 24_3 25_125_2 25_3 26_126_2 26_3 27_127_2 27_3 28_128_2 28_3 29_129_2 29_3 30_130_2 30_3 31_131_2 31_3
                    (Studente8, *) 1_1 1_2 1_3 2_1 2_2 2_3 3_1 3_2  3_3 4_1 4_2  4_3 5_1 5_2  5_3 6_1 6_2  6_3 7_1 7_2  7_3 8_1 8_2  8_3 9_1 9_2  9_3 10_110_2 10_3 11_111_2 11_3 12_112_2 12_3 13_113_2 13_3 14_114_2 14_3 15_115_2 15_3 16_116_2 16_3 17_117_2 17_3 18_118_2 18_3 19_119_2 19_3 20_120_2 20_3 21_121_2 21_3 22_122_2 22_3 23_123_2 23_3 24_124_2 24_3 25_125_2 25_3 26_126_2 26_3 27_127_2 27_3 28_128_2 28_3 29_129_2 29_3 30_130_2 30_3 31_131_2 31_3
                    (Studente9, *) 1_1 1_2 1_3 2_1 2_2 2_3 3_1 3_2  3_3 4_1 4_2  4_3 5_1 5_2  5_3 6_1 6_2  6_3 7_1 7_2  7_3 8_1 8_2  8_3 9_1 9_2  9_3 10_110_2 10_3 11_111_2 11_3 12_112_2 12_3 13_113_2 13_3 14_114_2 14_3 15_115_2 15_3 16_116_2 16_3 17_117_2 17_3 18_118_2 18_3 19_119_2 19_3 20_120_2 20_3 21_121_2 21_3 22_122_2 22_3 23_123_2 23_3 24_124_2 24_3 25_125_2 25_3 26_126_2 26_3 27_127_2 27_3 28_128_2 28_3 29_129_2 29_3 30_130_2 30_3 31_131_2 31_3
                    (Studente10, *) 1_1 1_2 1_3 2_1 2_2 2_3 3_1 3_2  3_3 4_1 4_2  4_3 5_1 5_2  5_3 6_1 6_2  6_3 7_1 7_2  7_3 8_1 8_2  8_3 9_1 9_2  9_3 10_110_2 10_3 11_111_2 11_3 12_112_2 12_3 13_113_2 13_3 14_114_2 14_3 15_115_2 15_3 16_116_2 16_3 17_117_2 17_3 18_118_2 18_3 19_119_2 19_3 20_120_2 20_3 21_121_2 21_3 22_122_2 22_3 23_123_2 23_3 24_124_2 24_3 25_125_2 25_3 26_126_2 26_3 27_127_2 27_3 28_128_2 28_3 29_129_2 29_3 30_130_2 30_3 31_131_2 31_3
                    (Studente11, *) 1_1 1_2 1_3 2_1 2_2 2_3 3_1 3_2  3_3 4_1 4_2  4_3 5_1 5_2  5_3 6_1 6_2  6_3 7_1 7_2  7_3 8_1 8_2  8_3 9_1 9_2  9_3 10_110_2 10_3 11_111_2 11_3 12_112_2 12_3 13_113_2 13_3 14_114_2 14_3 15_115_2 15_3 16_116_2 16_3 17_117_2 17_3 18_118_2 18_3 19_119_2 19_3 20_120_2 20_3 21_121_2 21_3 22_122_2 22_3 23_123_2 23_3 24_124_2 24_3 25_125_2 25_3 26_126_2 26_3 27_127_2 27_3 28_128_2 28_3 29_129_2 29_3 30_130_2 30_3 31_131_2 31_3
                    (Studente12, *) 1_1 1_2 1_3 2_1 2_2 2_3 3_1 3_2  3_3 4_1 4_2  4_3 5_1 5_2  5_3 6_1 6_2  6_3 7_1 7_2  7_3 8_1 8_2  8_3 9_1 9_2  9_3 10_110_2 10_3 11_111_2 11_3 12_112_2 12_3 13_113_2 13_3 14_114_2 14_3 15_115_2 15_3 16_116_2 16_3 17_117_2 17_3 18_118_2 18_3 19_119_2 19_3 20_120_2 20_3 21_121_2 21_3 22_122_2 22_3 23_123_2 23_3 24_124_2 24_3 25_125_2 25_3 26_126_2 26_3 27_127_2 27_3 28_128_2 28_3 29_129_2 29_3 30_130_2 30_3 31_131_2 31_3
                    (Studente13, *) 1_1 1_2 1_3 2_1 2_2 2_3 3_1 3_2  3_3 4_1 4_2  4_3 5_1 5_2  5_3 6_1 6_2  6_3 7_1 7_2  7_3 8_1 8_2  8_3 9_1 9_2  9_3 10_110_2 10_3 11_111_2 11_3 12_112_2 12_3 13_113_2 13_3 14_114_2 14_3 15_115_2 15_3 16_116_2 16_3 17_117_2 17_3 18_118_2 18_3 19_119_2 19_3 20_120_2 20_3 21_121_2 21_3 22_122_2 22_3 23_123_2 23_3 24_124_2 24_3 25_125_2 25_3 26_126_2 26_3 27_127_2 27_3 28_128_2 28_3 29_129_2 29_3 30_130_2 30_3 31_131_2 31_3
                    (Studente14, *) 1_1 1_2 1_3 2_1 2_2 2_3 3_1 3_2  3_3 4_1 4_2  4_3 5_1 5_2  5_3 6_1 6_2  6_3 7_1 7_2  7_3 8_1 8_2  8_3 9_1 9_2  9_3 10_110_2 10_3 11_111_2 11_3 12_112_2 12_3 13_113_2 13_3 14_114_2 14_3 15_115_2 15_3 16_116_2 16_3 17_117_2 17_3 18_118_2 18_3 19_119_2 19_3 20_120_2 20_3 21_121_2 21_3 22_122_2 22_3 23_123_2 23_3 24_124_2 24_3 25_125_2 25_3 26_126_2 26_3 27_127_2 27_3 28_128_2 28_3 29_129_2 29_3 30_130_2 30_3 31_131_2 31_3
                    (Studente15, *) 1_1 1_2 1_3 2_1 2_2 2_3 3_1 3_2  3_3 4_1 4_2  4_3 5_1 5_2  5_3 6_1 6_2  6_3 7_1 7_2  7_3 8_1 8_2  8_3 9_1 9_2  9_3 10_110_2 10_3 11_111_2 11_3 12_112_2 12_3 13_113_2 13_3 14_114_2 14_3 15_115_2 15_3 16_116_2 16_3 17_117_2 17_3 18_118_2 18_3 19_119_2 19_3 20_120_2 20_3 21_121_2 21_3 22_122_2 22_3 23_123_2 23_3 24_124_2 24_3 25_125_2 25_3 26_126_2 26_3 27_127_2 27_3 28_128_2 28_3 29_129_2 29_3 30_130_2 30_3 31_131_2 31_3
                    (Studente16, *) 1_1 1_2 1_3 2_1 2_2 2_3 3_1 3_2  3_3 4_1 4_2  4_3 5_1 5_2  5_3 6_1 6_2  6_3 7_1 7_2  7_3 8_1 8_2  8_3 9_1 9_2  9_3 10_110_2 10_3 11_111_2 11_3 12_112_2 12_3 13_113_2 13_3 14_114_2 14_3 15_115_2 15_3 16_116_2 16_3 17_117_2 17_3 18_118_2 18_3 19_119_2 19_3 20_120_2 20_3 21_121_2 21_3 22_122_2 22_3 23_123_2 23_3 24_124_2 24_3 25_125_2 25_3 26_126_2 26_3 27_127_2 27_3 28_128_2 28_3 29_129_2 29_3 30_130_2 30_3 31_131_2 31_3
                    (Studente17, *) 1_1 1_2 1_3 2_1 2_2 2_3 3_1 3_2  3_3 4_1 4_2  4_3 5_1 5_2  5_3 6_1 6_2  6_3 7_1 7_2  7_3 8_1 8_2  8_3 9_1 9_2  9_3 10_110_2 10_3 11_111_2 11_3 12_112_2 12_3 13_113_2 13_3 14_114_2 14_3 15_115_2 15_3 16_116_2 16_3 17_117_2 17_3 18_118_2 18_3 19_119_2 19_3 20_120_2 20_3 21_121_2 21_3 22_122_2 22_3 23_123_2 23_3 24_124_2 24_3 25_125_2 25_3 26_126_2 26_3 27_127_2 27_3 28_128_2 28_3 29_129_2 29_3 30_130_2 30_3 31_131_2 31_3
                    (Studente18, *) 1_1 1_2 1_3 2_1 2_2 2_3 3_1 3_2  3_3 4_1 4_2  4_3 5_1 5_2  5_3 6_1 6_2  6_3 7_1 7_2  7_3 8_1 8_2  8_3 9_1 9_2  9_3 10_110_2 10_3 11_111_2 11_3 12_112_2 12_3 13_113_2 13_3 14_114_2 14_3 15_115_2 15_3 16_116_2 16_3 17_117_2 17_3 18_118_2 18_3 19_119_2 19_3 20_120_2 20_3 21_121_2 21_3 22_122_2 22_3 23_123_2 23_3 24_124_2 24_3 25_125_2 25_3 26_126_2 26_3 27_127_2 27_3 28_128_2 28_3 29_129_2 29_3 30_130_2 30_3 31_131_2 31_3
                    (Studente19, *) 1_1 1_2 1_3 2_1 2_2 2_3 3_1 3_2  3_3 4_1 4_2  4_3 5_1 5_2  5_3 6_1 6_2  6_3 7_1 7_2  7_3 8_1 8_2  8_3 9_1 9_2  9_3 10_110_2 10_3 11_111_2 11_3 12_112_2 12_3 13_113_2 13_3 14_114_2 14_3 15_115_2 15_3 16_116_2 16_3 17_117_2 17_3 18_118_2 18_3 19_119_2 19_3 20_120_2 20_3 21_121_2 21_3 22_122_2 22_3 23_123_2 23_3 24_124_2 24_3 25_125_2 25_3 26_126_2 26_3 27_127_2 27_3 28_128_2 28_3 29_129_2 29_3 30_130_2 30_3 31_131_2 31_3
                    (Studente20, *) 1_1 1_2 1_3 2_1 2_2 2_3 3_1 3_2  3_3 4_1 4_2  4_3 5_1 5_2  5_3 6_1 6_2  6_3 7_1 7_2  7_3 8_1 8_2  8_3 9_1 9_2  9_3 10_110_2 10_3 11_111_2 11_3 12_112_2 12_3 13_113_2 13_3 14_114_2 14_3 15_115_2 15_3 16_116_2 16_3 17_117_2 17_3 18_118_2 18_3 19_119_2 19_3 20_120_2 20_3 21_121_2 21_3 22_122_2 22_3 23_123_2 23_3 24_124_2 24_3 25_125_2 25_3 26_126_2 26_3 27_127_2 27_3 28_128_2 28_3 29_129_2 29_3 30_130_2 30_3 31_131_2 31_3 ;

set AVAILABILITY := 
                    (Studente1, *) 1_1 1_2 1_3 2_1 2_2 2_3 3_1 3_2 3_3 4_1 4_2 4_3 5_1 5_2 5_3 6_1 6_2 6_3 7_1 7_2 7_3 8_1 8_2 8_3 9_1 9_2 9_3 10_110_2 10_3 11_111_2 11_3 12_112_2 12_3 13_113_2 13_3 14_114_2 14_3 15_115_2 15_3 16_116_2 16_3 17_117_2 17_3 18_118_2 18_3 19_119_2 19_3 20_120_2 20_3 21_121_2 21_3 22_122_2 22_3 23_123_2 23_3 24_124_2 24_3 25_125_2 25_3 26_126_2 26_3 27_127_2 27_3 28_128_2 28_3 29_129_2 29_3 30_130_2 30_3 31_131_2 31_3 1
                    (Studente2, *) 1_1 1_2 1_3 2_1 2_2 2_3 3_1 3_2 3_3 4_1 4_2 4_3 5_1 5_2 5_3 6_1 6_2 6_3 7_1 7_2 7_3 8_1 8_2 8_3 9_1 9_2 9_3 10_110_2 10_3 11_111_2 11_3 12_112_2 12_3 13_113_2 13_3 14_114_2 14_3 15_115_2 15_3 16_116_2 16_3 17_117_2 17_3 18_118_2 18_3 19_119_2 19_3 20_120_2 20_3 21_121_2 21_3 22_122_2 22_3 23_123_2 23_3 24_124_2 24_3 25_125_2 25_3 26_126_2 26_3 27_127_2 27_3 28_128_2 28_3 29_129_2 29_3 30_130_2 30_3 31_131_2 31_3 1
                    (Studente3, *) 1_1 1_2 1_3 2_1 2_2 2_3 3_1 3_2 3_3 4_1 4_2 4_3 5_1 5_2 5_3 6_1 6_2 6_3 7_1 7_2 7_3 8_1 8_2 8_3 9_1 9_2 9_3 10_110_2 10_3 11_111_2 11_3 12_112_2 12_3 13_113_2 13_3 14_114_2 14_3 15_115_2 15_3 16_116_2 16_3 17_117_2 17_3 18_118_2 18_3 19_119_2 19_3 20_120_2 20_3 21_121_2 21_3 22_122_2 22_3 23_123_2 23_3 24_124_2 24_3 25_125_2 25_3 26_126_2 26_3 27_127_2 27_3 28_128_2 28_3 29_129_2 29_3 30_130_2 30_3 31_131_2 31_3 1
                    (Studente4, *) 1_1 1_2 1_3 2_1 2_2 2_3 3_1 3_2 3_3 4_1 4_2 4_3 5_1 5_2 5_3 6_1 6_2 6_3 7_1 7_2 7_3 8_1 8_2 8_3 9_1 9_2 9_3 10_110_2 10_3 11_111_2 11_3 12_112_2 12_3 13_113_2 13_3 14_114_2 14_3 15_115_2 15_3 16_116_2 16_3 17_117_2 17_3 18_118_2 18_3 19_119_2 19_3 20_120_2 20_3 21_121_2 21_3 22_122_2 22_3 23_123_2 23_3 24_124_2 24_3 25_125_2 25_3 26_126_2 26_3 27_127_2 27_3 28_128_2 28_3 29_129_2 29_3 30_130_2 30_3 31_131_2 31_3 1
                    (Studente5, *) 1_1 1_2 1_3 2_1 2_2 2_3 3_1 3_2 3_3 4_1 4_2 4_3 5_1 5_2 5_3 6_1 6_2 6_3 7_1 7_2 7_3 8_1 8_2 8_3 9_1 9_2 9_3 10_110_2 10_3 11_111_2 11_3 12_112_2 12_3 13_113_2 13_3 14_114_2 14_3 15_115_2 15_3 16_116_2 16_3 17_117_2 17_3 18_118_2 18_3 19_119_2 19_3 20_120_2 20_3 21_121_2 21_3 22_122_2 22_3 23_123_2 23_3 24_124_2 24_3 25_125_2 25_3 26_126_2 26_3 27_127_2 27_3 28_128_2 28_3 29_129_2 29_3 30_130_2 30_3 31_131_2 31_3 1
                    (Studente6, *) 1_1 1_2 1_3 2_1 2_2 2_3 3_1 3_2 3_3 4_1 4_2 4_3 5_1 5_2 5_3 6_1 6_2 6_3 7_1 7_2 7_3 8_1 8_2 8_3 9_1 9_2 9_3 10_110_2 10_3 11_111_2 11_3 12_112_2 12_3 13_113_2 13_3 14_114_2 14_3 15_115_2 15_3 16_116_2 16_3 17_117_2 17_3 18_118_2 18_3 19_119_2 19_3 20_120_2 20_3 21_121_2 21_3 22_122_2 22_3 23_123_2 23_3 24_124_2 24_3 25_125_2 25_3 26_126_2 26_3 27_127_2 27_3 28_128_2 28_3 29_129_2 29_3 30_130_2 30_3 31_131_2 31_3 1
                    (Studente7, *) 1_1 1_2 1_3 2_1 2_2 2_3 3_1 3_2 3_3 4_1 4_2 4_3 5_1 5_2 5_3 6_1 6_2 6_3 7_1 7_2 7_3 8_1 8_2 8_3 9_1 9_2 9_3 10_110_2 10_3 11_111_2 11_3 12_112_2 12_3 13_113_2 13_3 14_114_2 14_3 15_115_2 15_3 16_116_2 16_3 17_117_2 17_3 18_118_2 18_3 19_119_2 19_3 20_120_2 20_3 21_121_2 21_3 22_122_2 22_3 23_123_2 23_3 24_124_2 24_3 25_125_2 25_3 26_126_2 26_3 27_127_2 27_3 28_128_2 28_3 29_129_2 29_3 30_130_2 30_3 31_131_2 31_3 1
                    (Studente8, *) 1_1 1_2 1_3 2_1 2_2 2_3 3_1 3_2 3_3 4_1 4_2 4_3 5_1 5_2 5_3 6_1 6_2 6_3 7_1 7_2 7_3 8_1 8_2 8_3 9_1 9_2 9_3 10_110_2 10_3 11_111_2 11_3 12_112_2 12_3 13_113_2 13_3 14_114_2 14_3 15_115_2 15_3 16_116_2 16_3 17_117_2 17_3 18_118_2 18_3 19_119_2 19_3 20_120_2 20_3 21_121_2 21_3 22_122_2 22_3 23_123_2 23_3 24_124_2 24_3 25_125_2 25_3 26_126_2 26_3 27_127_2 27_3 28_128_2 28_3 29_129_2 29_3 30_130_2 30_3 31_131_2 31_3 1
                    (Studente9, *) 1_1 1_2 1_3 2_1 2_2 2_3 3_1 3_2 3_3 4_1 4_2 4_3 5_1 5_2 5_3 6_1 6_2 6_3 7_1 7_2 7_3 8_1 8_2 8_3 9_1 9_2 9_3 10_110_2 10_3 11_111_2 11_3 12_112_2 12_3 13_113_2 13_3 14_114_2 14_3 15_115_2 15_3 16_116_2 16_3 17_117_2 17_3 18_118_2 18_3 19_119_2 19_3 20_120_2 20_3 21_121_2 21_3 22_122_2 22_3 23_123_2 23_3 24_124_2 24_3 25_125_2 25_3 26_126_2 26_3 27_127_2 27_3 28_128_2 28_3 29_129_2 29_3 30_130_2 30_3 31_131_2 31_3 1
                    (Studente10, *) 1_1 1_2 1_3 2_1 2_2 2_3 3_1 3_2 3_3 4_1 4_2 4_3 5_1 5_2 5_3 6_1 6_2 6_3 7_1 7_2 7_3 8_1 8_2 8_3 9_1 9_2 9_3 10_110_2 10_3 11_111_2 11_3 12_112_2 12_3 13_113_2 13_3 14_114_2 14_3 15_115_2 15_3 16_116_2 16_3 17_117_2 17_3 18_118_2 18_3 19_119_2 19_3 20_120_2 20_3 21_121_2 21_3 22_122_2 22_3 23_123_2 23_3 24_124_2 24_3 25_125_2 25_3 26_126_2 26_3 27_127_2 27_3 28_128_2 28_3 29_129_2 29_3 30_130_2 30_3 31_131_2 31_3 1
                    (Studente11, *) 1_1 1_2 1_3 2_1 2_2 2_3 3_1 3_2 3_3 4_1 4_2 4_3 5_1 5_2 5_3 6_1 6_2 6_3 7_1 7_2 7_3 8_1 8_2 8_3 9_1 9_2 9_3 10_110_2 10_3 11_111_2 11_3 12_112_2 12_3 13_113_2 13_3 14_114_2 14_3 15_115_2 15_3 16_116_2 16_3 17_117_2 17_3 18_118_2 18_3 19_119_2 19_3 20_120_2 20_3 21_121_2 21_3 22_122_2 22_3 23_123_2 23_3 24_124_2 24_3 25_125_2 25_3 26_126_2 26_3 27_127_2 27_3 28_128_2 28_3 29_129_2 29_3 30_130_2 30_3 31_131_2 31_3 1
                    (Studente12, *) 1_1 1_2 1_3 2_1 2_2 2_3 3_1 3_2 3_3 4_1 4_2 4_3 5_1 5_2 5_3 6_1 6_2 6_3 7_1 7_2 7_3 8_1 8_2 8_3 9_1 9_2 9_3 10_110_2 10_3 11_111_2 11_3 12_112_2 12_3 13_113_2 13_3 14_114_2 14_3 15_115_2 15_3 16_116_2 16_3 17_117_2 17_3 18_118_2 18_3 19_119_2 19_3 20_120_2 20_3 21_121_2 21_3 22_122_2 22_3 23_123_2 23_3 24_124_2 24_3 25_125_2 25_3 26_126_2 26_3 27_127_2 27_3 28_128_2 28_3 29_129_2 29_3 30_130_2 30_3 31_131_2 31_3 1
                    (Studente13, *) 1_1 1_2 1_3 2_1 2_2 2_3 3_1 3_2 3_3 4_1 4_2 4_3 5_1 5_2 5_3 6_1 6_2 6_3 7_1 7_2 7_3 8_1 8_2 8_3 9_1 9_2 9_3 10_110_2 10_3 11_111_2 11_3 12_112_2 12_3 13_113_2 13_3 14_114_2 14_3 15_115_2 15_3 16_116_2 16_3 17_117_2 17_3 18_118_2 18_3 19_119_2 19_3 20_120_2 20_3 21_121_2 21_3 22_122_2 22_3 23_123_2 23_3 24_124_2 24_3 25_125_2 25_3 26_126_2 26_3 27_127_2 27_3 28_128_2 28_3 29_129_2 29_3 30_130_2 30_3 31_131_2 31_3 1
                    (Studente14, *) 1_1 1_2 1_3 2_1 2_2 2_3 3_1 3_2 3_3 4_1 4_2 4_3 5_1 5_2 5_3 6_1 6_2 6_3 7_1 7_2 7_3 8_1 8_2 8_3 9_1 9_2 9_3 10_110_2 10_3 11_111_2 11_3 12_112_2 12_3 13_113_2 13_3 14_114_2 14_3 15_115_2 15_3 16_116_2 16_3 17_117_2 17_3 18_118_2 18_3 19_119_2 19_3 20_120_2 20_3 21_121_2 21_3 22_122_2 22_3 23_123_2 23_3 24_124_2 24_3 25_125_2 25_3 26_126_2 26_3 27_127_2 27_3 28_128_2 28_3 29_129_2 29_3 30_130_2 30_3 31_131_2 31_3 1
                    (Studente15, *) 1_1 1_2 1_3 2_1 2_2 2_3 3_1 3_2 3_3 4_1 4_2 4_3 5_1 5_2 5_3 6_1 6_2 6_3 7_1 7_2 7_3 8_1 8_2 8_3 9_1 9_2 9_3 10_110_2 10_3 11_111_2 11_3 12_112_2 12_3 13_113_2 13_3 14_114_2 14_3 15_115_2 15_3 16_116_2 16_3 17_117_2 17_3 18_118_2 18_3 19_119_2 19_3 20_120_2 20_3 21_121_2 21_3 22_122_2 22_3 23_123_2 23_3 24_124_2 24_3 25_125_2 25_3 26_126_2 26_3 27_127_2 27_3 28_128_2 28_3 29_129_2 29_3 30_130_2 30_3 31_131_2 31_3 1
                    (Studente16, *) 1_1 1_2 1_3 2_1 2_2 2_3 3_1 3_2 3_3 4_1 4_2 4_3 5_1 5_2 5_3 6_1 6_2 6_3 7_1 7_2 7_3 8_1 8_2 8_3 9_1 9_2 9_3 10_110_2 10_3 11_111_2 11_3 12_112_2 12_3 13_113_2 13_3 14_114_2 14_3 15_115_2 15_3 16_116_2 16_3 17_117_2 17_3 18_118_2 18_3 19_119_2 19_3 20_120_2 20_3 21_121_2 21_3 22_122_2 22_3 23_123_2 23_3 24_124_2 24_3 25_125_2 25_3 26_126_2 26_3 27_127_2 27_3 28_128_2 28_3 29_129_2 29_3 30_130_2 30_3 31_131_2 31_3 1
                    (Studente17, *) 1_1 1_2 1_3 2_1 2_2 2_3 3_1 3_2 3_3 4_1 4_2 4_3 5_1 5_2 5_3 6_1 6_2 6_3 7_1 7_2 7_3 8_1 8_2 8_3 9_1 9_2 9_3 10_110_2 10_3 11_111_2 11_3 12_112_2 12_3 13_113_2 13_3 14_114_2 14_3 15_115_2 15_3 16_116_2 16_3 17_117_2 17_3 18_118_2 18_3 19_119_2 19_3 20_120_2 20_3 21_121_2 21_3 22_122_2 22_3 23_123_2 23_3 24_124_2 24_3 25_125_2 25_3 26_126_2 26_3 27_127_2 27_3 28_128_2 28_3 29_129_2 29_3 30_130_2 30_3 31_131_2 31_3 1
                    (Studente18, *) 1_1 1_2 1_3 2_1 2_2 2_3 3_1 3_2 3_3 4_1 4_2 4_3 5_1 5_2 5_3 6_1 6_2 6_3 7_1 7_2 7_3 8_1 8_2 8_3 9_1 9_2 9_3 10_110_2 10_3 11_111_2 11_3 12_112_2 12_3 13_113_2 13_3 14_114_2 14_3 15_115_2 15_3 16_116_2 16_3 17_117_2 17_3 18_118_2 18_3 19_119_2 19_3 20_120_2 20_3 21_121_2 21_3 22_122_2 22_3 23_123_2 23_3 24_124_2 24_3 25_125_2 25_3 26_126_2 26_3 27_127_2 27_3 28_128_2 28_3 29_129_2 29_3 30_130_2 30_3 31_131_2 31_3 1
                    (Studente19, *) 1_1 1_2 1_3 2_1 2_2 2_3 3_1 3_2 3_3 4_1 4_2 4_3 5_1 5_2 5_3 6_1 6_2 6_3 7_1 7_2 7_3 8_1 8_2 8_3 9_1 9_2 9_3 10_110_2 10_3 11_111_2 11_3 12_112_2 12_3 13_113_2 13_3 14_114_2 14_3 15_115_2 15_3 16_116_2 16_3 17_117_2 17_3 18_118_2 18_3 19_119_2 19_3 20_120_2 20_3 21_121_2 21_3 22_122_2 22_3 23_123_2 23_3 24_124_2 24_3 25_125_2 25_3 26_126_2 26_3 27_127_2 27_3 28_128_2 28_3 29_129_2 29_3 30_130_2 30_3 31_131_2 31_3 1
                    (Studente20, *) 1_1 1_2 1_3 2_1 2_2 2_3 3_1 3_2 3_3 4_1 4_2 4_3 5_1 5_2 5_3 6_1 6_2 6_3 7_1 7_2 7_3 8_1 8_2 8_3 9_1 9_2 9_3 10_110_2 10_3 11_111_2 11_3 12_112_2 12_3 13_113_2 13_3 14_114_2 14_3 15_115_2 15_3 16_116_2 16_3 17_117_2 17_3 18_118_2 18_3 19_119_2 19_3 20_120_2 20_3 21_121_2 21_3 22_122_2 22_3 23_123_2 23_3 24_124_2 24_3 25_125_2 25_3 26_126_2 26_3 27_127_2 27_3 28_128_2 28_3 29_129_2 29_3 30_130_2 30_3 31_131_2 31_3 1 ;
